\ENCODING=ISO-8859-1
\Problem name: 

Maximize
 obj: 50 pattern_0_0 + 47 pattern_0_1 + 50 pattern_1_0 + 50 pattern_2_0
      + 50 pattern_3_0 + 50 pattern_1_1 + 50 pattern_2_1 + 50 pattern_3_1
      + 50 pattern_4_0 + 50 pattern_5_0 + 50 pattern_6_0 + 50 pattern_4_1
      + 50 pattern_5_1 + 50 pattern_6_1 + 50 pattern_7_0 + 50 pattern_8_0
      + 50 pattern_9_0 + 49 pattern_7_1 + 50 pattern_10_0 + 49 pattern_8_1
      + 50 pattern_9_1 + 50 pattern_10_1
Subject To
 constraint_2_0:        pattern_0_0 + pattern_1_0 + pattern_2_0 + pattern_3_0
                        + pattern_4_0 + pattern_5_0 + pattern_6_0 + pattern_7_0
                        + pattern_8_0 + pattern_9_0 + pattern_10_0  = 1
 constraint_2_1:        pattern_0_1 + pattern_1_1 + pattern_2_1 + pattern_3_1
                        + pattern_4_1 + pattern_5_1 + pattern_6_1 + pattern_7_1
                        + pattern_8_1 + pattern_9_1 + pattern_10_1  = 1
 constraint_3_0_0_0_0:  - rho_0_0_0  = 0
 constraint_3_0_0_0_1:  - rho_0_0_1  = 0
 constraint_3_0_0_0_2:  - rho_0_0_2  = 0
 constraint_3_0_0_0_3:  - rho_0_0_3  = 0
 constraint_3_0_0_0_4:  - rho_0_0_4  = 0
 constraint_3_0_0_0_5:  - rho_0_0_5  = 0
 constraint_3_0_0_0_6:  - rho_0_0_6  = 0
 constraint_3_0_0_0_7:  - rho_0_0_7  = 0
 constraint_3_0_0_0_8:  - rho_0_0_8  = 0
 constraint_3_0_0_0_9:  - rho_0_0_9  = 0
 constraint_3_0_0_0_10: - rho_0_0_10  = 0
 constraint_3_0_0_0_11: - rho_0_0_11  = 0
 constraint_3_0_0_0_12: - rho_0_0_12  = 0
 constraint_3_0_0_0_13: - rho_0_0_13  = 0
 constraint_3_0_0_0_14: - rho_0_0_14 + pattern_0_0  = 0
 constraint_3_0_0_0_15: - rho_0_0_15 + pattern_1_0  = 0
 constraint_3_0_0_0_16: - rho_0_0_16  = 0
 constraint_3_0_0_0_17: - rho_0_0_17  = 0
 constraint_3_0_0_0_18: - rho_0_0_18  = 0
 constraint_3_0_0_0_19: - rho_0_0_19  = 0
 constraint_3_0_0_0_20: - rho_0_0_20  = 0
 constraint_3_0_0_0_21: - rho_0_0_21  = 0
 constraint_3_0_0_0_22: - rho_0_0_22  = 0
 constraint_3_0_0_0_23: - rho_0_0_23  = 0
 constraint_3_0_0_0_24: - rho_0_0_24  = 0
 constraint_3_0_0_0_25: - rho_0_0_25  = 0
 constraint_3_0_0_0_26: - rho_0_0_26  = 0
 constraint_3_0_0_0_27: - rho_0_0_27 + pattern_2_0  = 0
 constraint_3_0_0_0_28: - rho_0_0_28  = 0
 constraint_3_0_0_0_29: - rho_0_0_29  = 0
 constraint_3_0_0_0_30: - rho_0_0_30  = 0
 constraint_3_0_0_0_31: - rho_0_0_31  = 0
 constraint_3_0_0_0_32: - rho_0_0_32  = 0
 constraint_3_0_0_0_33: - rho_0_0_33  = 0
 constraint_3_1_0_0_0:  - rho_0_0_0 + pattern_2_1 + pattern_3_1  = 0
 constraint_3_1_0_0_1:  - rho_0_0_1  = 0
 constraint_3_1_0_0_2:  - rho_0_0_2  = 0
 constraint_3_1_0_0_3:  - rho_0_0_3  = 0
 constraint_3_1_0_0_4:  - rho_0_0_4  = 0
 constraint_3_1_0_0_5:  - rho_0_0_5  = 0
 constraint_3_1_0_0_6:  - rho_0_0_6  = 0
 constraint_3_1_0_0_7:  - rho_0_0_7  = 0
 constraint_3_1_0_0_8:  - rho_0_0_8  = 0
 constraint_3_1_0_0_9:  - rho_0_0_9  = 0
 constraint_3_1_0_0_10: - rho_0_0_10  = 0
 constraint_3_1_0_0_11: - rho_0_0_11  = 0
 constraint_3_1_0_0_12: - rho_0_0_12  = 0
 constraint_3_1_0_0_13: - rho_0_0_13  = 0
 constraint_3_1_0_0_14: - rho_0_0_14 + pattern_0_1  = 0
 constraint_3_1_0_0_15: - rho_0_0_15  = 0
 constraint_3_1_0_0_16: - rho_0_0_16  = 0
 constraint_3_1_0_0_17: - rho_0_0_17  = 0
 constraint_3_1_0_0_18: - rho_0_0_18  = 0
 constraint_3_1_0_0_19: - rho_0_0_19  = 0
 constraint_3_1_0_0_20: - rho_0_0_20  = 0
 constraint_3_1_0_0_21: - rho_0_0_21  = 0
 constraint_3_1_0_0_22: - rho_0_0_22  = 0
 constraint_3_1_0_0_23: - rho_0_0_23  = 0
 constraint_3_1_0_0_24: - rho_0_0_24  = 0
 constraint_3_1_0_0_25: - rho_0_0_25  = 0
 constraint_3_1_0_0_26: - rho_0_0_26  = 0
 constraint_3_1_0_0_27: - rho_0_0_27  = 0
 constraint_3_1_0_0_28: - rho_0_0_28  = 0
 constraint_3_1_0_0_29: - rho_0_0_29  = 0
 constraint_3_1_0_0_30: - rho_0_0_30  = 0
 constraint_3_1_0_0_31: - rho_0_0_31  = 0
 constraint_3_1_0_0_32: - rho_0_0_32  = 0
 constraint_3_1_0_0_33: - rho_0_0_33  = 0
 constraint_3_0_0_1_17: pattern_3_0 - rho_0_1_17  = 0
 constraint_3_1_0_1_17: - rho_0_1_17  = 0
 constraint_3_0_0_1_0:  - rho_0_1_0  = 0
 constraint_3_1_0_1_0:  pattern_1_1 - rho_0_1_0  = 0
 constraint_3_0_0_2_23: pattern_4_0 - rho_0_2_23  = 0
 constraint_3_1_0_2_23: - rho_0_2_23 + pattern_7_1  = 0
 constraint_3_0_0_2_30: pattern_5_0 - rho_0_2_30  = 0
 constraint_3_1_0_2_30: - rho_0_2_30  = 0
 constraint_3_0_0_1_18: pattern_6_0 - rho_0_1_18  = 0
 constraint_3_1_0_1_18: - rho_0_1_18  = 0
 constraint_3_0_0_1_1:  - rho_0_1_1  = 0
 constraint_3_1_0_1_1:  pattern_4_1 - rho_0_1_1  = 0
 constraint_3_0_0_2_4:  - rho_0_2_4  = 0
 constraint_3_1_0_2_4:  pattern_5_1 - rho_0_2_4  = 0
 constraint_3_0_0_2_12: - rho_0_2_12 + pattern_10_0  = 0
 constraint_3_1_0_2_12: pattern_6_1 - rho_0_2_12  = 0
 constraint_3_0_0_3_20: pattern_7_0 - rho_0_3_20  = 0
 constraint_3_1_0_3_20: - rho_0_3_20  = 0
 constraint_3_0_0_1_15: pattern_8_0 - rho_0_1_15  = 0
 constraint_3_1_0_1_15: - rho_0_1_15  = 0
 constraint_3_0_0_1_19: pattern_9_0 - rho_0_1_19  = 0
 constraint_3_1_0_1_19: - rho_0_1_19  = 0
 constraint_3_0_0_2_0:  - rho_0_2_0  = 0
 constraint_3_1_0_2_0:  pattern_8_1 - rho_0_2_0  = 0
 constraint_3_0_0_3_5:  - rho_0_3_5  = 0
 constraint_3_1_0_3_5:  pattern_9_1 - rho_0_3_5  = 0
 constraint_3_0_0_2_2:  - rho_0_2_2  = 0
 constraint_3_1_0_2_2:  pattern_10_1 - rho_0_2_2  = 0
Bounds
      rho_0_0_0 Free
      rho_0_0_1 Free
      rho_0_0_2 Free
      rho_0_0_3 Free
      rho_0_0_4 Free
      rho_0_0_5 Free
      rho_0_0_6 Free
      rho_0_0_7 Free
      rho_0_0_8 Free
      rho_0_0_9 Free
      rho_0_0_10 Free
      rho_0_0_11 Free
      rho_0_0_12 Free
      rho_0_0_13 Free
      rho_0_0_14 Free
      rho_0_0_15 Free
      rho_0_0_16 Free
      rho_0_0_17 Free
      rho_0_0_18 Free
      rho_0_0_19 Free
      rho_0_0_20 Free
      rho_0_0_21 Free
      rho_0_0_22 Free
      rho_0_0_23 Free
      rho_0_0_24 Free
      rho_0_0_25 Free
      rho_0_0_26 Free
      rho_0_0_27 Free
      rho_0_0_28 Free
      rho_0_0_29 Free
      rho_0_0_30 Free
      rho_0_0_31 Free
      rho_0_0_32 Free
      rho_0_0_33 Free
      rho_0_1_17 Free
      rho_0_1_0 Free
      rho_0_2_23 Free
      rho_0_2_30 Free
      rho_0_1_18 Free
      rho_0_1_1 Free
      rho_0_2_4 Free
      rho_0_2_12 Free
      rho_0_3_20 Free
      rho_0_1_15 Free
      rho_0_1_19 Free
      rho_0_2_0 Free
      rho_0_3_5 Free
      rho_0_2_2 Free
End
